c ind 10 13 15 16 25 28 43 45 47 49 0
c ind 5 6 77 9 0
p cnf 77 235
-1 -2 11 0
-1 2 76 0
-11 -12 14 0
-11 12 17 0
-12 -13 9 0
-12 -9 13 0
-14 -15 16 0
-14 -16 15 0
-16 0
-17 -18 20 0
-17 18 76 0
-18 19 0
-18 3 0
-19 -13 5 0
-19 -5 13 0
-2 3 7 0
-20 -21 75 0
-20 21 14 0
-21 -22 29 0
-21 22 68 0
-22 23 26 0
-23 -24 0
-24 -25 6 0
-24 -6 25 0
-26 -27 0
-27 -10 28 0
-27 -28 10 0
-29 -30 31 0
-29 30 35 0
-3 -4 0
-30 -10 13 0
-30 -13 10 0
-31 32 0
-31 34 0
-32 33 0
-32 34 0
-33 34 0
-34 -13 16 0
-34 -16 13 0
-35 -36 38 0
-35 36 68 0
-36 23 0
-36 37 0
-37 -13 6 0
-37 -6 13 0
-38 -39 31 0
-38 39 50 0
-39 40 0
-39 48 0
-4 -5 6 0
-4 -6 5 0
-40 41 0
-40 46 0
-41 42 0
-41 44 0
-42 -13 43 0
-42 -43 13 0
-44 -13 45 0
-44 -45 13 0
-46 -13 47 0
-46 -47 13 0
-48 -13 49 0
-48 -49 13 0
-50 51 0
-50 64 0
-51 52 0
-51 60 0
-52 53 0
-52 56 0
-53 -13 54 0
-53 -54 13 0
-54 -55 -16 0
-54 55 16 0
-55 -43 -13 0
-55 43 13 0
-56 -13 57 0
-56 -57 13 0
-57 -58 -59 0
-57 58 59 0
-58 -45 -16 0
-58 45 16 0
-59 43 16 0
-60 -13 61 0
-60 -61 13 0
-61 -62 -63 0
-61 62 63 0
-62 -47 -16 0
-62 47 16 0
-63 45 0
-63 59 0
-64 -13 65 0
-64 -65 13 0
-65 -66 -67 0
-65 66 67 0
-66 -49 -16 0
-66 49 16 0
-67 47 0
-67 63 0
-68 69 0
-68 74 0
-69 70 0
-69 73 0
-7 -8 0
-70 71 0
-70 72 0
-71 -13 43 0
-71 -43 13 0
-72 -13 45 0
-72 -45 13 0
-73 -13 47 0
-73 -47 13 0
-74 -13 49 0
-74 -49 13 0
-75 -13 15 0
-75 -15 13 0
-76 -15 77 0
-76 -77 15 0
-8 -10 9 0
-8 -9 10 0
1 -11 -76 0
1 -2 -11 0
1 0
1 2 -76 0
11 -12 -14 0
11 -14 -17 0
11 12 -17 0
12 -9 -13 0
12 9 13 0
13 0
14 -15 -16 0
14 15 16 0
17 -18 -20 0
17 -20 -76 0
17 18 -76 0
18 -3 -19 0
19 -5 -13 0
19 5 13 0
2 -3 0
2 -7 0
20 -21 -75 0
20 -75 -14 0
20 21 -14 0
21 -22 -29 0
21 -29 -68 0
21 22 -68 0
22 -23 0
22 -26 0
23 24 0
24 -6 -25 0
24 6 25 0
26 27 0
27 -10 -28 0
27 10 28 0
29 -30 -31 0
29 -31 -35 0
29 30 -35 0
3 4 0
30 -10 -13 0
30 10 13 0
31 -32 -34 0
32 -33 -34 0
33 -34 -34 0
34 -13 -16 0
34 13 16 0
35 -36 -38 0
35 -38 -68 0
35 36 -68 0
36 -23 -37 0
37 -6 -13 0
37 6 13 0
38 -31 -50 0
38 -39 -31 0
38 39 -50 0
39 -40 -48 0
4 -5 -6 0
4 5 6 0
40 -41 -46 0
41 -42 -44 0
42 -43 -13 0
42 43 13 0
44 -45 -13 0
44 45 13 0
46 -47 -13 0
46 47 13 0
48 -49 -13 0
48 49 13 0
50 -51 -64 0
51 -52 -60 0
52 -53 -56 0
53 -13 -54 0
53 13 54 0
54 -16 55 0
54 -55 16 0
55 -13 43 0
55 -43 13 0
56 -13 -57 0
56 13 57 0
57 -58 59 0
57 -59 58 0
58 -16 45 0
58 -45 16 0
59 -16 0
59 -43 0
60 -13 -61 0
60 13 61 0
61 -62 63 0
61 -63 62 0
62 -16 47 0
62 -47 16 0
63 -45 -59 0
64 -13 -65 0
64 13 65 0
65 -66 67 0
65 -67 66 0
66 -16 49 0
66 -49 16 0
67 -47 -63 0
68 -69 -74 0
69 -70 -73 0
7 8 0
70 -71 -72 0
71 -13 -43 0
71 13 43 0
72 -13 -45 0
72 13 45 0
73 -13 -47 0
73 13 47 0
74 -13 -49 0
74 13 49 0
75 -15 -13 0
75 15 13 0
76 -15 -77 0
76 15 77 0
8 -9 -10 0
8 9 10 0
